   10      15
    1       4       2
    1       6       6
    1       8       8
    1       9       2
    2       6       4
    2       9       7
    3       5       6
    3       6       3
    4      10       7
    5       6      10
    5       8       8
    5       9       4
    6      10      10
    7       9       5
    7      10       1



6 
 
4
10 
7   
9 
6
5


6

4
10
7
9
6
5

